183 5
10 10 10 10 10 

0 0 0 0 0 0 1 2 
0 0 0 0 0 0 5 3 4 5 6 9 
5 0 0 0 1 0 3 12 10 7 
5 0 0 0 7 0 2 8 7 
3 0 0 0 5 0 2 12 10 
1 0 0 0 7 0 2 11 10 
2 0 0 0 7 0 1 11 
9 0 0 0 3 0 1 10 
8 0 0 0 3 0 1 10 
8 0 0 0 5 0 1 13 
3 0 0 0 4 0 1 13 
1 0 0 0 8 0 1 13 
0 0 0 0 0 0 4 14 26 38 50 
0 0 0 0 0 0 5 15 16 17 18 21 
5 0 4 0 0 0 3 24 20 19 
10 0 6 0 0 0 3 24 20 19 
10 0 7 0 0 0 2 24 22 
2 0 7 0 0 0 2 23 22 
5 0 10 0 0 0 1 23 
1 0 2 0 0 0 2 22 155 
2 0 3 0 0 0 1 22 
4 0 3 0 0 0 1 25 
2 0 5 0 0 0 1 25 
7 0 3 0 0 0 1 25 
0 0 0 0 0 0 1 62 
0 0 0 0 0 0 8 27 29 30 31 33 34 35 36 
9 0 0 1 0 0 1 28 
3 0 0 8 0 0 1 32 
3 0 0 6 0 0 1 32 
3 0 0 7 0 0 1 32 
5 0 0 3 0 0 1 32 
1 0 0 1 0 0 1 37 
7 0 0 6 0 0 1 37 
7 0 0 9 0 0 2 37 142 
6 0 0 3 0 0 1 37 
8 0 0 6 0 0 1 37 
0 0 0 0 0 0 1 62 
0 0 0 0 0 0 4 39 42 43 44 
7 0 0 0 0 1 3 48 41 40 
10 0 0 0 0 7 3 47 46 45 
5 0 0 0 0 8 2 47 45 
6 0 0 0 0 2 2 46 45 
9 0 0 0 0 4 2 46 45 
2 0 0 0 0 7 1 45 
7 0 0 0 0 5 1 49 
3 0 0 0 0 5 2 49 64 
1 0 0 0 0 6 1 49 
1 0 0 0 0 5 1 49 
0 0 0 0 0 0 1 62 
0 0 0 0 0 0 4 51 52 54 55 
3 0 0 0 1 0 2 60 53 
2 0 0 0 2 0 5 60 59 58 57 56 
4 0 0 0 4 0 4 59 58 57 56 
9 0 0 0 7 0 3 58 57 56 
9 0 0 0 8 0 2 56 78 
7 0 0 0 6 0 1 61 
7 0 0 0 3 0 1 61 
3 0 0 0 6 0 1 61 
10 0 0 0 5 0 1 61 
5 0 0 0 8 0 1 61 
0 0 0 0 0 0 1 62 
0 0 0 0 0 0 5 63 75 87 99 111 
0 0 0 0 0 0 4 64 65 67 68 
10 0 0 0 0 1 5 73 71 70 69 66 
8 0 0 0 0 5 2 71 69 
3 0 0 0 0 6 1 72 
10 0 0 0 0 2 2 70 82 
7 0 0 0 0 9 1 69 
10 0 0 0 0 3 1 74 
5 0 0 0 0 7 1 74 
4 0 0 0 0 5 1 74 
6 0 0 0 0 6 1 74 
6 0 0 0 0 6 1 74 
0 0 0 0 0 0 1 123 
0 0 0 0 0 0 6 76 77 78 79 81 82 
1 0 0 0 0 1 3 85 84 80 
8 0 0 0 0 3 3 85 84 83 
8 0 0 0 0 3 2 85 80 
3 0 0 0 0 8 2 80 106 
1 0 0 0 0 9 1 83 
5 0 0 0 0 6 1 84 
9 0 0 0 0 8 1 83 
4 0 0 0 0 4 1 86 
2 0 0 0 0 3 1 86 
8 0 0 0 0 5 1 86 
0 0 0 0 0 0 1 123 
0 0 0 0 0 0 5 88 90 91 96 97 
5 0 1 0 0 0 2 92 89 
4 0 4 0 0 0 4 95 94 93 133 
5 0 4 0 0 0 3 95 94 93 
2 0 8 0 0 0 2 94 92 
10 0 3 0 0 0 1 93 
7 0 10 0 0 0 1 98 
4 0 5 0 0 0 1 98 
8 0 4 0 0 0 1 98 
6 0 4 0 0 0 1 98 
9 0 7 0 0 0 1 98 
0 0 0 0 0 0 1 123 
0 0 0 0 0 0 4 100 102 103 104 
8 1 0 0 0 0 3 108 107 101 
8 3 0 0 0 0 3 109 106 105 
3 3 0 0 0 0 3 108 106 105 
4 8 0 0 0 0 1 107 
9 7 0 0 0 0 1 105 
5 5 0 0 0 0 1 110 
1 7 0 0 0 0 1 110 
1 5 0 0 0 0 2 110 126 
6 6 0 0 0 0 1 110 
2 5 0 0 0 0 1 110 
0 0 0 0 0 0 1 123 
0 0 0 0 0 0 3 112 113 114 
10 0 0 0 1 0 5 119 118 117 116 115 
1 0 0 0 7 0 6 119 118 117 116 115 142 
2 0 0 0 6 0 5 119 118 117 116 115 
4 0 0 0 7 0 2 121 120 
9 0 0 0 6 0 2 121 120 
8 0 0 0 7 0 2 121 120 
8 0 0 0 2 0 2 121 120 
10 0 0 0 5 0 1 120 
4 0 0 0 5 0 1 122 
1 0 0 0 4 0 1 122 
0 0 0 0 0 0 1 123 
0 0 0 0 0 0 4 124 136 148 160 
0 0 0 0 0 0 3 125 126 128 
6 0 0 0 0 1 3 134 130 127 
1 0 0 0 0 5 4 133 132 130 129 
4 0 0 0 0 8 2 133 132 
5 0 0 0 0 6 1 129 
9 0 0 0 0 4 1 131 
4 0 0 0 0 3 1 131 
5 0 0 0 0 3 1 135 
4 0 0 0 0 8 1 135 
8 0 0 0 0 7 1 135 
2 0 0 0 0 5 1 135 
0 0 0 0 0 0 1 172 
0 0 0 0 0 0 6 137 138 139 140 143 146 
5 0 0 1 0 0 2 142 141 
9 0 0 4 0 0 2 145 144 
9 0 0 2 0 0 1 141 
10 0 0 7 0 0 1 141 
6 0 0 6 0 0 1 144 
3 0 0 4 0 0 1 144 
10 0 0 7 0 0 1 144 
8 0 0 6 0 0 1 147 
2 0 0 8 0 0 1 147 
7 0 0 5 0 0 1 147 
0 0 0 0 0 0 1 172 
0 0 0 0 0 0 4 149 150 151 154 
9 0 0 3 0 0 4 158 157 153 152 
10 0 0 3 0 0 2 157 155 
7 0 0 4 0 0 1 152 
8 0 0 5 0 0 1 156 
10 0 0 5 0 0 1 155 
3 0 0 10 0 0 1 155 
6 0 0 4 0 0 1 159 
4 0 0 10 0 0 1 159 
8 0 0 3 0 0 1 159 
4 0 0 3 0 0 1 159 
0 0 0 0 0 0 1 172 
0 0 0 0 0 0 5 161 162 164 166 170 
4 0 0 4 0 0 2 169 163 
7 0 0 1 0 0 2 165 163 
2 0 0 3 0 0 2 168 167 
4 0 0 3 0 0 1 165 
6 0 0 5 0 0 1 167 
10 0 0 3 0 0 1 168 
2 0 0 8 0 0 1 171 
7 0 0 5 0 0 1 171 
7 0 0 8 0 0 1 171 
5 0 0 10 0 0 1 171 
0 0 0 0 0 0 1 172 
0 0 0 0 0 0 5 173 174 176 177 182 
6 0 0 0 1 0 3 180 179 175 
10 0 0 0 4 0 2 180 178 
3 0 0 0 10 0 1 178 
9 0 0 0 6 0 1 181 
3 0 0 0 10 0 1 179 
8 0 0 0 4 0 1 183 
3 0 0 0 6 0 1 183 
2 0 0 0 3 0 1 183 
6 0 0 0 4 0 1 183 
9 0 0 0 2 0 1 183 
0 0 0 0 0 0 0 
